<number of tasks>
50

<cycle time>
1000

<order strength>
0.904


<task times>
1 189
2 200
3 70
4 128
5 161
6 184
7 234
8 52
9 287
10 64
11 182
12 58
13 138
14 118
15 218
16 83
17 254
18 142
19 200
20 51
21 45
22 41
23 104
24 155
25 30
26 138
27 33
28 167
29 236
30 99
31 115
32 107
33 241
34 92
35 183
36 239
37 122
38 115
39 333
40 67
41 338
42 31
43 159
44 111
45 107
46 185
47 137
48 61
49 236
50 123

<precedence relations>
1,4
1,5
1,6
1,7
2,4
2,5
2,6
2,7
3,4
3,5
3,6
3,7
4,8
4,9
5,8
5,9
6,8
6,9
7,8
7,9
8,10
8,11
8,12
8,13
9,10
9,11
9,12
9,13
10,14
10,15
10,16
11,14
11,15
11,16
12,14
12,15
12,16
13,14
13,15
13,16
14,17
14,18
15,17
15,18
16,17
16,18
17,19
17,20
18,19
18,20
19,21
19,22
20,21
20,22
21,23
21,24
22,23
22,24
23,25
23,26
23,27
24,25
24,26
24,27
25,28
25,29
25,30
25,31
26,28
26,29
26,30
26,31
27,29
28,32
29,33
30,37
30,42
30,47
31,44
32,34
32,35
33,34
34,36
34,37
34,38
35,36
35,37
35,38
36,40
36,41
37,39
37,41
38,39
38,40
39,45
40,42
40,44
41,43
42,48
43,46
44,46
44,47
44,48
46,49
46,50
47,49
47,50

<end>
